complete4.mps
NAME Complete4
ROWS
 N  x17
 E  c_e_x18_
 E  c_e_x19_
 E  c_e_x20_
 E  c_e_x21_
 E  c_e_x22_
 L  c_u_x23_
 L  c_u_x24_
 L  c_u_x25_
 L  c_u_x26_
 L  c_u_x27_
 L  c_u_x28_
 L  c_u_x29_
 L  c_u_x30_
 L  c_u_x31_
 L  c_u_x32_
 L  c_u_x33_
 L  c_u_x34_
 L  c_u_x35_
 L  c_u_x36_
 L  c_u_x37_
 L  c_u_x38_
 L  c_u_x39_
 L  c_u_x40_
 L  c_u_x41_
 L  c_u_x42_
 L  c_u_x43_
 L  c_u_x44_
 L  c_u_x45_
 L  c_u_x46_
 L  c_u_x47_
 L  c_u_x48_
 L  c_u_x49_
 L  c_u_x50_
 L  c_u_x51_
 L  c_u_x52_
 L  c_u_x53_
 L  c_u_x54_
 L  c_u_x55_
 L  c_u_x56_
 L  c_u_x57_
 L  c_u_x58_
 L  c_u_x59_
 L  c_u_x60_
 L  c_u_x61_
 L  c_u_x62_
 L  c_u_x63_
 L  c_u_x64_
 L  c_u_x65_
 L  c_u_x66_
 L  c_u_x67_
 L  c_u_x68_
 L  c_u_x69_
 L  c_u_x70_
 L  c_u_x71_
 L  c_u_x72_
 L  c_u_x73_
 L  c_u_x74_
 L  c_u_x75_
 L  c_u_x76_
 L  c_u_x77_
 L  c_u_x78_
 L  c_u_x79_
 L  c_u_x80_
 L  c_u_x81_
 L  c_u_x82_
 L  c_u_x83_
 L  c_u_x84_
 L  c_u_x85_
 L  c_u_x86_
 L  c_u_x87_
 L  c_u_x88_
 L  c_u_x89_
 L  c_u_x90_
 L  c_u_x91_
 L  c_u_x92_
 L  c_u_x93_
 L  c_u_x94_
 L  c_u_x95_
 L  c_u_x96_
 L  c_u_x97_
 L  c_u_x98_
 L  c_u_x99_
 L  c_u_x100_
 L  c_u_x101_
COLUMNS
     x1 c_e_x18_ 1
     x1 c_u_x47_ 1
     x1 c_u_x48_ 1
     x1 c_u_x49_ 1
     x1 c_u_x50_ 1
     x1 c_u_x51_ 1
     x1 c_u_x52_ 1
     x1 c_u_x53_ 1
     x1 c_u_x54_ 1
     x1 c_u_x55_ 1
     x1 c_u_x56_ 1
     x1 c_u_x57_ 1
     x1 c_u_x58_ 1
     x1 c_u_x59_ 1
     x1 c_u_x60_ 1
     x1 c_u_x61_ 1
     x1 c_u_x62_ 1
     x1 c_u_x63_ 1
     x1 c_u_x64_ 1
     x1 c_u_x65_ 1
     x1 c_u_x66_ 1
     x1 c_u_x67_ 1
     x1 c_u_x68_ 1
     x1 c_u_x73_ 1
     x1 c_u_x78_ 1
     x1 c_u_x82_ 1
     x2 c_u_x23_ 1
     x2 c_u_x25_ 1
     x2 c_u_x27_ 1
     x2 c_u_x47_ -1
     x2 c_u_x48_ -1
     x2 c_u_x49_ -1
     x2 c_u_x50_ -1
     x2 c_u_x51_ -1
     x2 c_u_x52_ -1
     x2 c_u_x53_ -1
     x2 c_u_x69_ 1
     x2 c_u_x70_ 1
     x2 c_u_x74_ 1
     x2 c_u_x76_ 1
     x2 c_u_x80_ 1
     x2 c_u_x85_ 1
     x3 c_u_x24_ 1
     x3 c_u_x29_ 1
     x3 c_u_x31_ 1
     x3 c_u_x47_ -1
     x3 c_u_x54_ -1
     x3 c_u_x55_ -1
     x3 c_u_x56_ -1
     x3 c_u_x57_ -1
     x3 c_u_x58_ -1
     x3 c_u_x59_ -1
     x3 c_u_x71_ 1
     x3 c_u_x72_ 1
     x3 c_u_x75_ 1
     x3 c_u_x87_ 1
     x3 c_u_x89_ 1
     x3 c_u_x92_ 1
     x4 c_u_x26_ 1
     x4 c_u_x30_ 1
     x4 c_u_x33_ 1
     x4 c_u_x48_ -1
     x4 c_u_x54_ -1
     x4 c_u_x60_ -1
     x4 c_u_x61_ -1
     x4 c_u_x62_ -1
     x4 c_u_x63_ -1
     x4 c_u_x64_ -1
     x4 c_u_x77_ 1
     x4 c_u_x79_ 1
     x4 c_u_x81_ 1
     x4 c_u_x88_ 1
     x4 c_u_x90_ 1
     x4 c_u_x94_ 1
     x5 c_u_x28_ 1
     x5 c_u_x32_ 1
     x5 c_u_x34_ 1
     x5 c_u_x49_ -1
     x5 c_u_x55_ -1
     x5 c_u_x60_ -1
     x5 c_u_x65_ -1
     x5 c_u_x66_ -1
     x5 c_u_x67_ -1
     x5 c_u_x68_ -1
     x5 c_u_x83_ 1
     x5 c_u_x84_ 1
     x5 c_u_x86_ 1
     x5 c_u_x91_ 1
     x5 c_u_x93_ 1
     x5 c_u_x95_ 1
     x6 c_u_x23_ -1
     x6 c_u_x24_ -1
     x6 c_u_x35_ 1
     x6 c_u_x38_ 1
     x6 c_u_x47_ 1
     x6 c_u_x61_ -1
     x6 c_u_x65_ -1
     x6 c_u_x69_ -1
     x6 c_u_x70_ -1
     x6 c_u_x71_ -1
     x6 c_u_x72_ -1
     x6 c_u_x73_ -1
     x6 c_u_x74_ -1
     x6 c_u_x75_ -1
     x6 c_u_x96_ 1
     x7 c_u_x25_ -1
     x7 c_u_x26_ -1
     x7 c_u_x36_ 1
     x7 c_u_x41_ 1
     x7 c_u_x48_ 1
     x7 c_u_x56_ -1
     x7 c_u_x66_ -1
     x7 c_u_x69_ -1
     x7 c_u_x76_ -1
     x7 c_u_x77_ -1
     x7 c_u_x78_ -1
     x7 c_u_x79_ -1
     x7 c_u_x80_ -1
     x7 c_u_x81_ -1
     x7 c_u_x97_ 1
     x8 c_u_x27_ -1
     x8 c_u_x28_ -1
     x8 c_u_x39_ 1
     x8 c_u_x42_ 1
     x8 c_u_x49_ 1
     x8 c_u_x57_ -1
     x8 c_u_x62_ -1
     x8 c_u_x70_ -1
     x8 c_u_x76_ -1
     x8 c_u_x82_ -1
     x8 c_u_x83_ -1
     x8 c_u_x84_ -1
     x8 c_u_x85_ -1
     x8 c_u_x86_ -1
     x8 c_u_x99_ 1
     x9 c_u_x29_ -1
     x9 c_u_x30_ -1
     x9 c_u_x37_ 1
     x9 c_u_x44_ 1
     x9 c_u_x50_ -1
     x9 c_u_x54_ 1
     x9 c_u_x67_ -1
     x9 c_u_x71_ -1
     x9 c_u_x77_ -1
     x9 c_u_x82_ -1
     x9 c_u_x87_ -1
     x9 c_u_x88_ -1
     x9 c_u_x89_ -1
     x9 c_u_x90_ -1
     x9 c_u_x98_ 1
     x10 c_u_x31_ -1
     x10 c_u_x32_ -1
     x10 c_u_x40_ 1
     x10 c_u_x45_ 1
     x10 c_u_x51_ -1
     x10 c_u_x55_ 1
     x10 c_u_x63_ -1
     x10 c_u_x72_ -1
     x10 c_u_x78_ -1
     x10 c_u_x83_ -1
     x10 c_u_x87_ -1
     x10 c_u_x91_ -1
     x10 c_u_x92_ -1
     x10 c_u_x93_ -1
     x10 c_u_x100_ 1
     x11 c_u_x33_ -1
     x11 c_u_x34_ -1
     x11 c_u_x43_ 1
     x11 c_u_x46_ 1
     x11 c_u_x52_ -1
     x11 c_u_x58_ -1
     x11 c_u_x60_ 1
     x11 c_u_x73_ -1
     x11 c_u_x79_ -1
     x11 c_u_x84_ -1
     x11 c_u_x88_ -1
     x11 c_u_x91_ -1
     x11 c_u_x94_ -1
     x11 c_u_x95_ -1
     x11 c_u_x101_ 1
     x12 c_e_x19_ 1
     x12 c_u_x35_ -1
     x12 c_u_x36_ -1
     x12 c_u_x37_ -1
     x12 c_u_x50_ 1
     x12 c_u_x56_ 1
     x12 c_u_x61_ 1
     x12 c_u_x68_ -1
     x12 c_u_x69_ 1
     x12 c_u_x71_ 1
     x12 c_u_x77_ 1
     x12 c_u_x85_ -1
     x12 c_u_x92_ -1
     x12 c_u_x94_ -1
     x12 c_u_x96_ -1
     x12 c_u_x97_ -1
     x12 c_u_x98_ -1
     x13 c_e_x20_ 1
     x13 c_u_x38_ -1
     x13 c_u_x39_ -1
     x13 c_u_x40_ -1
     x13 c_u_x51_ 1
     x13 c_u_x57_ 1
     x13 c_u_x64_ -1
     x13 c_u_x65_ 1
     x13 c_u_x70_ 1
     x13 c_u_x72_ 1
     x13 c_u_x80_ -1
     x13 c_u_x83_ 1
     x13 c_u_x89_ -1
     x13 c_u_x95_ -1
     x13 c_u_x96_ -1
     x13 c_u_x99_ -1
     x13 c_u_x100_ -1
     x14 c_e_x21_ 1
     x14 c_u_x41_ -1
     x14 c_u_x42_ -1
     x14 c_u_x43_ -1
     x14 c_u_x52_ 1
     x14 c_u_x59_ -1
     x14 c_u_x62_ 1
     x14 c_u_x66_ 1
     x14 c_u_x74_ -1
     x14 c_u_x76_ 1
     x14 c_u_x79_ 1
     x14 c_u_x84_ 1
     x14 c_u_x90_ -1
     x14 c_u_x93_ -1
     x14 c_u_x97_ -1
     x14 c_u_x99_ -1
     x14 c_u_x101_ -1
     x15 c_e_x22_ 1
     x15 c_u_x44_ -1
     x15 c_u_x45_ -1
     x15 c_u_x46_ -1
     x15 c_u_x53_ -1
     x15 c_u_x58_ 1
     x15 c_u_x63_ 1
     x15 c_u_x67_ 1
     x15 c_u_x75_ -1
     x15 c_u_x81_ -1
     x15 c_u_x86_ -1
     x15 c_u_x87_ 1
     x15 c_u_x88_ 1
     x15 c_u_x91_ 1
     x15 c_u_x98_ -1
     x15 c_u_x100_ -1
     x15 c_u_x101_ -1
     x16 x17 -1
     x16 c_e_x19_ -1
     x16 c_e_x20_ -1
     x16 c_e_x21_ -1
     x16 c_e_x22_ -1
     x16 c_u_x53_ 1
     x16 c_u_x59_ 1
     x16 c_u_x64_ 1
     x16 c_u_x68_ 1
     x16 c_u_x73_ 1
     x16 c_u_x74_ 1
     x16 c_u_x75_ 1
     x16 c_u_x78_ 1
     x16 c_u_x80_ 1
     x16 c_u_x81_ 1
     x16 c_u_x82_ 1
     x16 c_u_x85_ 1
     x16 c_u_x86_ 1
     x16 c_u_x89_ 1
     x16 c_u_x90_ 1
     x16 c_u_x92_ 1
     x16 c_u_x93_ 1
     x16 c_u_x94_ 1
     x16 c_u_x95_ 1
     x16 c_u_x96_ 1
     x16 c_u_x97_ 1
     x16 c_u_x98_ 1
     x16 c_u_x99_ 1
     x16 c_u_x100_ 1
     x16 c_u_x101_ 1
RHS
     RHS c_e_x18_ 0
     RHS c_e_x19_ 0
     RHS c_e_x20_ 0
     RHS c_e_x21_ 0
     RHS c_e_x22_ 0
     RHS c_u_x23_ 0
     RHS c_u_x24_ 0
     RHS c_u_x25_ 0
     RHS c_u_x26_ 0
     RHS c_u_x27_ 0
     RHS c_u_x28_ 0
     RHS c_u_x29_ 0
     RHS c_u_x30_ 0
     RHS c_u_x31_ 0
     RHS c_u_x32_ 0
     RHS c_u_x33_ 0
     RHS c_u_x34_ 0
     RHS c_u_x35_ 0
     RHS c_u_x36_ 0
     RHS c_u_x37_ 0
     RHS c_u_x38_ 0
     RHS c_u_x39_ 0
     RHS c_u_x40_ 0
     RHS c_u_x41_ 0
     RHS c_u_x42_ 0
     RHS c_u_x43_ 0
     RHS c_u_x44_ 0
     RHS c_u_x45_ 0
     RHS c_u_x46_ 0
     RHS c_u_x47_ 0
     RHS c_u_x48_ 0
     RHS c_u_x49_ 0
     RHS c_u_x50_ 0
     RHS c_u_x51_ 0
     RHS c_u_x52_ 0
     RHS c_u_x53_ 0
     RHS c_u_x54_ 0
     RHS c_u_x55_ 0
     RHS c_u_x56_ 0
     RHS c_u_x57_ 0
     RHS c_u_x58_ 0
     RHS c_u_x59_ 0
     RHS c_u_x60_ 0
     RHS c_u_x61_ 0
     RHS c_u_x62_ 0
     RHS c_u_x63_ 0
     RHS c_u_x64_ 0
     RHS c_u_x65_ 0
     RHS c_u_x66_ 0
     RHS c_u_x67_ 0
     RHS c_u_x68_ 0
     RHS c_u_x69_ 0
     RHS c_u_x70_ 0
     RHS c_u_x71_ 0
     RHS c_u_x72_ 0
     RHS c_u_x73_ 0
     RHS c_u_x74_ 0
     RHS c_u_x75_ 0
     RHS c_u_x76_ 0
     RHS c_u_x77_ 0
     RHS c_u_x78_ 0
     RHS c_u_x79_ 0
     RHS c_u_x80_ 0
     RHS c_u_x81_ 0
     RHS c_u_x82_ 0
     RHS c_u_x83_ 0
     RHS c_u_x84_ 0
     RHS c_u_x85_ 0
     RHS c_u_x86_ 0
     RHS c_u_x87_ 0
     RHS c_u_x88_ 0
     RHS c_u_x89_ 0
     RHS c_u_x90_ 0
     RHS c_u_x91_ 0
     RHS c_u_x92_ 0
     RHS c_u_x93_ 0
     RHS c_u_x94_ 0
     RHS c_u_x95_ 0
     RHS c_u_x96_ 0
     RHS c_u_x97_ 0
     RHS c_u_x98_ 0
     RHS c_u_x99_ 0
     RHS c_u_x100_ 0
     RHS c_u_x101_ 0
BOUNDS
 LO BOUND x1 0
 LO BOUND x2 0
 UP BOUND x2 1
 LO BOUND x3 0
 UP BOUND x3 1
 LO BOUND x4 0
 UP BOUND x4 1
 LO BOUND x5 0
 UP BOUND x5 1
 LO BOUND x6 0
 LO BOUND x7 0
 LO BOUND x8 0
 LO BOUND x9 0
 LO BOUND x10 0
 LO BOUND x11 0
 LO BOUND x12 0
 LO BOUND x13 0
 LO BOUND x14 0
 LO BOUND x15 0
 LO BOUND x16 0
ENDATA
