complete4.nl
g3 1 1 0	# problem unknown
 16 84 1 0 5 	# vars, constraints, objectives, ranges, eqns
 0 0 0 0 0 0	# nonlinear constrs, objs; ccons: lin, nonlin, nd, nzlb
 0 0	# network constraints: nonlinear, linear
 0 0 0 	# nonlinear vars in constraints, objectives, both
 0 0 0 1	# linear network variables; functions; arith, flags
 0 0 0 0 0 	# discrete variables: binary, integer, nonlinear (b,c,o)
 277 1 	# nonzeros in Jacobian, obj. gradient
 0 0	# max name lengths: constraints, variables
 0 0 0 0 0	# common exprs: b,c,o,c1,o1
C0
n0
C1
n0
C2
n0
C3
n0
C4
n0
C5
n0
C6
n0
C7
n0
C8
n0
C9
n0
C10
n0
C11
n0
C12
n0
C13
n0
C14
n0
C15
n0
C16
n0
C17
n0
C18
n0
C19
n0
C20
n0
C21
n0
C22
n0
C23
n0
C24
n0
C25
n0
C26
n0
C27
n0
C28
n0
C29
n0
C30
n0
C31
n0
C32
n0
C33
n0
C34
n0
C35
n0
C36
n0
C37
n0
C38
n0
C39
n0
C40
n0
C41
n0
C42
n0
C43
n0
C44
n0
C45
n0
C46
n0
C47
n0
C48
n0
C49
n0
C50
n0
C51
n0
C52
n0
C53
n0
C54
n0
C55
n0
C56
n0
C57
n0
C58
n0
C59
n0
C60
n0
C61
n0
C62
n0
C63
n0
C64
n0
C65
n0
C66
n0
C67
n0
C68
n0
C69
n0
C70
n0
C71
n0
C72
n0
C73
n0
C74
n0
C75
n0
C76
n0
C77
n0
C78
n0
C79
n0
C80
n0
C81
n0
C82
n0
C83
n0
O0 0
n0
x0
r
4 0.0
4 0.0
4 0.0
4 0.0
4 0.0
1 0.0
1 0.0
1 0.0
1 0.0
1 0.0
1 0.0
1 0.0
1 0.0
1 0.0
1 0.0
1 0.0
1 0.0
1 0.0
1 0.0
1 0.0
1 0.0
1 0.0
1 0.0
1 0.0
1 0.0
1 0.0
1 0.0
1 0.0
1 0.0
1 0.0
1 0.0
1 0.0
1 0.0
1 0.0
1 0.0
1 0.0
1 0.0
1 0.0
1 0.0
1 0.0
1 0.0
1 0.0
1 0.0
1 0.0
1 0.0
1 0.0
1 0.0
1 0.0
1 0.0
1 0.0
1 0.0
1 0.0
1 0.0
1 0.0
1 0.0
1 0.0
1 0.0
1 0.0
1 0.0
1 0.0
1 0.0
1 0.0
1 0.0
1 0.0
1 0.0
1 0.0
1 0.0
1 0.0
1 0.0
1 0.0
1 0.0
1 0.0
1 0.0
1 0.0
1 0.0
1 0.0
1 0.0
1 0.0
1 0.0
1 0.0
1 0.0
1 0.0
1 0.0
1 0.0
b
2 0
0 0 1
0 0 1
0 0 1
0 0 1
2 0
2 0
2 0
2 0
2 0
2 0
2 0
2 0
2 0
2 0
2 0
k15
26
42
58
74
90
105
120
135
150
165
180
197
214
231
248
J0 1
0 1
J1 2
11 1
15 -1
J2 2
12 1
15 -1
J3 2
13 1
15 -1
J4 2
14 1
15 -1
J5 2
1 1
5 -1
J6 2
2 1
5 -1
J7 2
1 1
6 -1
J8 2
3 1
6 -1
J9 2
1 1
7 -1
J10 2
4 1
7 -1
J11 2
2 1
8 -1
J12 2
3 1
8 -1
J13 2
2 1
9 -1
J14 2
4 1
9 -1
J15 2
3 1
10 -1
J16 2
4 1
10 -1
J17 2
5 1
11 -1
J18 2
6 1
11 -1
J19 2
8 1
11 -1
J20 2
5 1
12 -1
J21 2
7 1
12 -1
J22 2
9 1
12 -1
J23 2
6 1
13 -1
J24 2
7 1
13 -1
J25 2
10 1
13 -1
J26 2
8 1
14 -1
J27 2
9 1
14 -1
J28 2
10 1
14 -1
J29 4
0 1
1 -1
2 -1
5 1
J30 4
0 1
1 -1
3 -1
6 1
J31 4
0 1
1 -1
4 -1
7 1
J32 4
0 1
1 -1
8 -1
11 1
J33 4
0 1
1 -1
9 -1
12 1
J34 4
0 1
1 -1
10 -1
13 1
J35 4
0 1
1 -1
14 -1
15 1
J36 4
0 1
2 -1
3 -1
8 1
J37 4
0 1
2 -1
4 -1
9 1
J38 4
0 1
2 -1
6 -1
11 1
J39 4
0 1
2 -1
7 -1
12 1
J40 4
0 1
2 -1
10 -1
14 1
J41 4
0 1
2 -1
13 -1
15 1
J42 4
0 1
3 -1
4 -1
10 1
J43 4
0 1
3 -1
5 -1
11 1
J44 4
0 1
3 -1
7 -1
13 1
J45 4
0 1
3 -1
9 -1
14 1
J46 4
0 1
3 -1
12 -1
15 1
J47 4
0 1
4 -1
5 -1
12 1
J48 4
0 1
4 -1
6 -1
13 1
J49 4
0 1
4 -1
8 -1
14 1
J50 4
0 1
4 -1
11 -1
15 1
J51 4
1 1
5 -1
6 -1
11 1
J52 4
1 1
5 -1
7 -1
12 1
J53 4
2 1
5 -1
8 -1
11 1
J54 4
2 1
5 -1
9 -1
12 1
J55 4
0 1
5 -1
10 -1
15 1
J56 4
1 1
5 -1
13 -1
15 1
J57 4
2 1
5 -1
14 -1
15 1
J58 4
1 1
6 -1
7 -1
13 1
J59 4
3 1
6 -1
8 -1
11 1
J60 4
0 1
6 -1
9 -1
15 1
J61 4
3 1
6 -1
10 -1
13 1
J62 4
1 1
6 -1
12 -1
15 1
J63 4
3 1
6 -1
14 -1
15 1
J64 4
0 1
7 -1
8 -1
15 1
J65 4
4 1
7 -1
9 -1
12 1
J66 4
4 1
7 -1
10 -1
13 1
J67 4
1 1
7 -1
11 -1
15 1
J68 4
4 1
7 -1
14 -1
15 1
J69 4
2 1
8 -1
9 -1
14 1
J70 4
3 1
8 -1
10 -1
14 1
J71 4
2 1
8 -1
12 -1
15 1
J72 4
3 1
8 -1
13 -1
15 1
J73 4
4 1
9 -1
10 -1
14 1
J74 4
2 1
9 -1
11 -1
15 1
J75 4
4 1
9 -1
13 -1
15 1
J76 4
3 1
10 -1
11 -1
15 1
J77 4
4 1
10 -1
12 -1
15 1
J78 4
5 1
11 -1
12 -1
15 1
J79 4
6 1
11 -1
13 -1
15 1
J80 4
8 1
11 -1
14 -1
15 1
J81 4
7 1
12 -1
13 -1
15 1
J82 4
9 1
12 -1
14 -1
15 1
J83 4
10 1
13 -1
14 -1
15 1
G0 1
15 -1
